NAME : 	X-n655-k131	
COMMENT : 	"Generated by Uchoa, Pecin, Pessoa, Poggi, Subramanian, and Vidal (2013)"	
TYPE : 	CVRP	
DIMENSION : 	655	
EDGE_WEIGHT_TYPE : 	EUC_2D	
CAPACITY : 	5	
NODE_COORD_SECTION		
1	500	500
2	346	793
3	692	966
4	171	666
5	287	795
6	133	668
7	704	959
8	400	795
9	195	897
10	845	931
11	829	724
12	300	860
13	218	829
14	116	780
15	237	631
16	126	681
17	825	922
18	315	913
19	271	769
20	530	917
21	156	900
22	265	808
23	171	742
24	388	776
25	153	664
26	393	855
27	320	751
28	594	862
29	213	810
30	723	924
31	192	877
32	661	910
33	153	729
34	334	812
35	558	944
36	502	783
37	266	747
38	23	753
39	180	584
40	702	854
41	354	649
42	412	709
43	721	928
44	168	674
45	364	640
46	375	727
47	247	977
48	332	853
49	664	929
50	646	901
51	248	723
52	116	628
53	123	690
54	247	539
55	715	966
56	314	712
57	237	747
58	202	679
59	409	946
60	684	879
61	142	576
62	204	636
63	440	817
64	697	882
65	772	977
66	177	889
67	341	787
68	391	725
69	82	764
70	734	834
71	352	732
72	646	553
73	102	631
74	354	612
75	374	865
76	421	812
77	335	835
78	646	931
79	560	910
80	702	965
81	273	790
82	329	750
83	300	586
84	850	855
85	235	683
86	393	953
87	389	923
88	341	851
89	781	946
90	329	862
91	472	873
92	356	895
93	194	733
94	53	777
95	133	596
96	606	971
97	273	812
98	223	812
99	156	820
100	317	650
101	177	790
102	389	747
103	663	944
104	336	940
105	284	739
106	737	977
107	249	956
108	433	852
109	294	856
110	285	879
111	280	818
112	175	885
113	295	747
114	669	902
115	763	969
116	138	632
117	193	593
118	220	818
119	145	800
120	739	960
121	72	672
122	752	940
123	639	894
124	329	726
125	799	987
126	118	343
127	660	917
128	382	741
129	242	626
130	164	824
131	350	881
132	509	886
133	190	416
134	72	656
135	353	659
136	132	677
137	364	771
138	893	900
139	140	645
140	411	757
141	397	805
142	171	644
143	488	625
144	260	816
145	764	980
146	149	657
147	769	855
148	716	925
149	191	843
150	566	966
151	620	908
152	358	727
153	268	705
154	406	927
155	139	943
156	192	762
157	549	931
158	177	664
159	433	707
160	301	753
161	361	840
162	120	764
163	178	664
164	109	751
165	318	529
166	419	952
167	309	737
168	289	787
169	350	812
170	88	794
171	151	658
172	185	883
173	411	467
174	603	872
175	342	708
176	317	747
177	579	988
178	329	555
179	361	731
180	37	706
181	394	558
182	154	745
183	324	703
184	370	912
185	727	900
186	150	702
187	383	694
188	151	679
189	149	654
190	144	638
191	269	635
192	212	842
193	217	644
194	250	597
195	835	953
196	620	949
197	324	910
198	344	793
199	176	922
200	370	746
201	204	682
202	262	830
203	328	484
204	385	931
205	706	957
206	201	655
207	300	737
208	379	791
209	728	720
210	296	858
211	154	613
212	663	942
213	135	908
214	805	910
215	646	872
216	113	692
217	349	554
218	290	737
219	430	668
220	588	977
221	236	656
222	370	871
223	286	727
224	89	671
225	136	667
226	195	761
227	188	705
228	377	846
229	375	728
230	269	763
231	235	694
232	452	826
233	281	909
234	215	585
235	325	707
236	419	817
237	392	704
238	152	544
239	136	580
240	643	996
241	198	731
242	155	556
243	345	859
244	99	666
245	519	722
246	168	757
247	295	824
248	676	800
249	229	686
250	772	941
251	294	729
252	637	926
253	464	795
254	346	681
255	327	758
256	665	965
257	98	690
258	852	860
259	770	889
260	124	598
261	235	831
262	680	969
263	323	800
264	525	931
265	120	772
266	839	978
267	214	652
268	660	965
269	297	626
270	236	738
271	148	850
272	138	699
273	336	773
274	605	738
275	190	648
276	119	620
277	198	853
278	288	514
279	888	888
280	165	542
281	682	934
282	794	844
283	759	985
284	416	819
285	724	966
286	403	812
287	270	789
288	482	818
289	69	537
290	734	946
291	292	679
292	346	556
293	644	943
294	681	943
295	323	765
296	514	782
297	141	713
298	624	870
299	625	952
300	356	923
301	356	576
302	328	801
303	185	648
304	287	633
305	689	956
306	645	958
307	137	895
308	299	975
309	448	752
310	348	642
311	151	631
312	675	910
313	245	776
314	434	705
315	283	804
316	889	924
317	187	781
318	486	662
319	350	844
320	519	720
321	720	924
322	259	800
323	514	712
324	443	521
325	421	818
326	174	765
327	750	969
328	481	831
329	281	600
330	141	959
331	299	730
332	320	840
333	341	651
334	365	730
335	789	953
336	680	906
337	145	740
338	304	810
339	290	741
340	467	973
341	600	980
342	288	613
343	309	761
344	153	907
345	307	834
346	335	809
347	989	940
348	176	655
349	759	975
350	345	821
351	658	971
352	749	841
353	380	754
354	316	640
355	177	803
356	133	650
357	254	803
358	311	838
359	293	782
360	493	855
361	704	715
362	102	745
363	226	806
364	147	600
365	437	837
366	262	671
367	152	706
368	310	738
369	146	594
370	864	905
371	271	792
372	317	845
373	607	724
374	407	563
375	469	986
376	693	918
377	235	641
378	405	833
379	617	890
380	508	893
381	361	822
382	712	984
383	577	895
384	225	550
385	171	397
386	391	780
387	418	845
388	155	768
389	135	553
390	381	894
391	383	713
392	631	842
393	313	899
394	777	738
395	289	831
396	699	923
397	323	706
398	309	774
399	232	689
400	232	654
401	540	966
402	373	830
403	137	742
404	205	693
405	178	829
406	203	663
407	354	767
408	212	657
409	370	890
410	300	820
411	142	643
412	274	816
413	358	665
414	330	387
415	152	815
416	522	768
417	232	688
418	179	630
419	359	620
420	276	725
421	269	741
422	300	881
423	234	495
424	848	971
425	141	576
426	158	722
427	140	687
428	293	767
429	250	870
430	571	769
431	162	708
432	236	891
433	142	766
434	470	860
435	409	941
436	293	643
437	219	907
438	438	500
439	381	689
440	186	778
441	298	706
442	149	681
443	745	731
444	314	700
445	252	792
446	218	889
447	286	867
448	331	662
449	817	976
450	210	767
451	60	635
452	290	814
453	356	864
454	377	751
455	759	947
456	209	914
457	348	823
458	600	940
459	283	741
460	219	943
461	334	754
462	146	701
463	245	914
464	333	697
465	700	975
466	354	815
467	281	903
468	393	876
469	313	794
470	116	629
471	350	746
472	457	836
473	360	833
474	723	793
475	322	922
476	373	835
477	182	725
478	612	984
479	276	788
480	337	871
481	157	712
482	180	718
483	110	751
484	478	864
485	198	713
486	97	782
487	245	799
488	366	753
489	705	860
490	251	740
491	331	736
492	678	955
493	357	819
494	170	770
495	310	710
496	138	651
497	157	698
498	299	520
499	253	784
500	314	735
501	238	903
502	753	794
503	116	779
504	25	788
505	115	837
506	191	605
507	39	803
508	269	809
509	333	845
510	103	581
511	390	849
512	678	973
513	368	739
514	218	733
515	698	973
516	742	935
517	338	814
518	272	632
519	96	621
520	200	778
521	741	911
522	728	990
523	374	755
524	628	922
525	713	842
526	426	574
527	243	643
528	736	891
529	379	850
530	348	845
531	370	701
532	281	761
533	121	730
534	189	703
535	405	747
536	722	827
537	380	638
538	192	679
539	323	680
540	194	723
541	675	994
542	391	872
543	754	984
544	319	838
545	289	917
546	466	764
547	409	807
548	302	908
549	140	817
550	303	803
551	479	913
552	42	548
553	349	834
554	702	995
555	686	901
556	379	698
557	659	924
558	362	867
559	290	701
560	157	702
561	289	978
562	239	744
563	312	820
564	742	986
565	195	565
566	339	789
567	191	700
568	341	972
569	259	794
570	200	725
571	219	685
572	378	793
573	329	846
574	326	617
575	640	793
576	317	866
577	279	817
578	942	960
579	369	728
580	688	978
581	190	881
582	136	608
583	184	611
584	85	689
585	507	533
586	326	860
587	279	803
588	688	984
589	653	911
590	360	747
591	319	744
592	390	741
593	252	873
594	657	981
595	104	721
596	363	911
597	154	695
598	667	910
599	185	714
600	896	805
601	73	709
602	324	725
603	258	810
604	233	734
605	794	896
606	267	664
607	84	667
608	692	953
609	299	858
610	193	780
611	647	844
612	427	680
613	227	914
614	57	738
615	708	994
616	249	792
617	283	655
618	146	694
619	263	686
620	105	706
621	241	837
622	312	704
623	199	748
624	370	882
625	227	644
626	331	670
627	295	836
628	59	723
629	201	647
630	662	737
631	249	655
632	183	835
633	343	587
634	285	816
635	770	930
636	354	804
637	331	901
638	817	995
639	172	670
640	397	950
641	317	783
642	391	900
643	309	797
644	324	959
645	437	695
646	77	613
647	361	894
648	721	986
649	272	770
650	688	871
651	708	917
652	380	847
653	359	931
654	83	847
655	185	712
DEMAND_SECTION		
1	0	
2	1	
3	1	
4	1	
5	1	
6	1	
7	1	
8	1	
9	1	
10	1
11	1
12	1
13	1
14	1
15	1
16	1
17	1
18	1
19	1
20	1
21	1
22	1
23	1
24	1
25	1
26	1
27	1
28	1
29	1
30	1
31	1
32	1
33	1
34	1
35	1
36	1
37	1
38	1
39	1
40	1
41	1
42	1
43	1
44	1
45	1
46	1
47	1
48	1
49	1
50	1
51	1
52	1
53	1
54	1
55	1
56	1
57	1
58	1
59	1
60	1
61	1
62	1
63	1
64	1
65	1
66	1
67	1
68	1
69	1
70	1
71	1
72	1
73	1
74	1
75	1
76	1
77	1
78	1
79	1
80	1
81	1
82	1
83	1
84	1
85	1
86	1
87	1
88	1
89	1
90	1
91	1
92	1
93	1
94	1
95	1
96	1
97	1
98	1
99	1
100	1
101	1
102	1
103	1
104	1
105	1
106	1
107	1
108	1
109	1
110	1
111	1
112	1
113	1
114	1
115	1
116	1
117	1
118	1
119	1
120	1
121	1
122	1
123	1
124	1
125	1
126	1
127	1
128	1
129	1
130	1
131	1
132	1
133	1
134	1
135	1
136	1
137	1
138	1
139	1
140	1
141	1
142	1
143	1
144	1
145	1
146	1
147	1
148	1
149	1
150	1
151	1
152	1
153	1
154	1
155	1
156	1
157	1
158	1
159	1
160	1
161	1
162	1
163	1
164	1
165	1
166	1
167	1
168	1
169	1
170	1
171	1
172	1
173	1
174	1
175	1
176	1
177	1
178	1
179	1
180	1
181	1
182	1
183	1
184	1
185	1
186	1
187	1
188	1
189	1
190	1
191	1
192	1
193	1
194	1
195	1
196	1
197	1
198	1
199	1
200	1
201	1
202	1
203	1
204	1
205	1
206	1
207	1
208	1
209	1
210	1
211	1
212	1
213	1
214	1
215	1
216	1
217	1
218	1
219	1
220	1
221	1
222	1
223	1
224	1
225	1
226	1
227	1
228	1
229	1
230	1
231	1
232	1
233	1
234	1
235	1
236	1
237	1
238	1
239	1
240	1
241	1
242	1
243	1
244	1
245	1
246	1
247	1
248	1
249	1
250	1
251	1
252	1
253	1
254	1
255	1
256	1
257	1
258	1
259	1
260	1
261	1
262	1
263	1
264	1
265	1
266	1
267	1
268	1
269	1
270	1
271	1
272	1
273	1
274	1
275	1
276	1
277	1
278	1
279	1
280	1
281	1
282	1
283	1
284	1
285	1
286	1
287	1
288	1
289	1
290	1
291	1
292	1
293	1
294	1
295	1
296	1
297	1
298	1
299	1
300	1
301	1
302	1
303	1
304	1
305	1
306	1
307	1
308	1
309	1
310	1
311	1
312	1
313	1
314	1
315	1
316	1
317	1
318	1
319	1
320	1
321	1
322	1
323	1
324	1
325	1
326	1
327	1
328	1
329	1
330	1
331	1
332	1
333	1
334	1
335	1
336	1
337	1
338	1
339	1
340	1
341	1
342	1
343	1
344	1
345	1
346	1
347	1
348	1
349	1
350	1
351	1
352	1
353	1
354	1
355	1
356	1
357	1
358	1
359	1
360	1
361	1
362	1
363	1
364	1
365	1
366	1
367	1
368	1
369	1
370	1
371	1
372	1
373	1
374	1
375	1
376	1
377	1
378	1
379	1
380	1
381	1
382	1
383	1
384	1
385	1
386	1
387	1
388	1
389	1
390	1
391	1
392	1
393	1
394	1
395	1
396	1
397	1
398	1
399	1
400	1
401	1
402	1
403	1
404	1
405	1
406	1
407	1
408	1
409	1
410	1
411	1
412	1
413	1
414	1
415	1
416	1
417	1
418	1
419	1
420	1
421	1
422	1
423	1
424	1
425	1
426	1
427	1
428	1
429	1
430	1
431	1
432	1
433	1
434	1
435	1
436	1
437	1
438	1
439	1
440	1
441	1
442	1
443	1
444	1
445	1
446	1
447	1
448	1
449	1
450	1
451	1
452	1
453	1
454	1
455	1
456	1
457	1
458	1
459	1
460	1
461	1
462	1
463	1
464	1
465	1
466	1
467	1
468	1
469	1
470	1
471	1
472	1
473	1
474	1
475	1
476	1
477	1
478	1
479	1
480	1
481	1
482	1
483	1
484	1
485	1
486	1
487	1
488	1
489	1
490	1
491	1
492	1
493	1
494	1
495	1
496	1
497	1
498	1
499	1
500	1
501	1
502	1
503	1
504	1
505	1
506	1
507	1
508	1
509	1
510	1
511	1
512	1
513	1
514	1
515	1
516	1
517	1
518	1
519	1
520	1
521	1
522	1
523	1
524	1
525	1
526	1
527	1
528	1
529	1
530	1
531	1
532	1
533	1
534	1
535	1
536	1
537	1
538	1
539	1
540	1
541	1
542	1
543	1
544	1
545	1
546	1
547	1
548	1
549	1
550	1
551	1
552	1
553	1
554	1
555	1
556	1
557	1
558	1
559	1
560	1
561	1
562	1
563	1
564	1
565	1
566	1
567	1
568	1
569	1
570	1
571	1
572	1
573	1
574	1
575	1
576	1
577	1
578	1
579	1
580	1
581	1
582	1
583	1
584	1
585	1
586	1
587	1
588	1
589	1
590	1
591	1
592	1
593	1
594	1
595	1
596	1
597	1
598	1
599	1
600	1
601	1
602	1
603	1
604	1
605	1
606	1
607	1
608	1
609	1
610	1
611	1
612	1
613	1
614	1
615	1
616	1
617	1
618	1
619	1
620	1
621	1
622	1
623	1
624	1
625	1
626	1
627	1
628	1
629	1
630	1
631	1
632	1
633	1
634	1
635	1
636	1
637	1
638	1
639	1
640	1
641	1
642	1
643	1
644	1
645	1
646	1
647	1
648	1
649	1
650	1
651	1
652	1
653	1
654	1
655	1
DEPOT_SECTION	
	1
	-1
EOF	
